00000000000000011001100110011001
00000000000000001100110011001100
00000000010100000000000000000000
00000000000100000000000000000000
00000000000000011001100110011001
00000000000100000000000000000000
00000000000100000000000000000000
00000000000000000000000000000000
00000000000000000000000000000000
00000000000000000000000000000000
00000000000000000000000000000000
00000000000000000000000000000000
00000000000000011001100110011001
00000000000000011101111111000100
00000000000000100111111110110000
00000000000001100011111100111000
00000000000000100111111110110000
00000000000000011101111111000100
00000000000001001111111101100000
00000000000000111011111110001000
00000000000000010011111111011000
00000000000000100111111110110000
00000000000001001111111101100000
00000000000000001001111111101100
00000000000001011001111101001100
00000000000001100011111100111000
00000000000000111011111110001000
00000000000000001001111111101100
00000000000000001001111111101100
00000000000000100111111110110000
00000000000000010011111111011000
00000000000001011001111101001100
00000000000000001001111111101100
